File : Instances/p59
Use 146 s

27895

0 0 1 0 1 0 1 0 1 0 1 0 1 1 1 0 1 1 1 1 0 0 0 1 1 1 0 0 1 0 
18 19 2 24 2 12 16 28 18 28 4 28 13 13 28 18 13 10 16 28 18 16 23 24 10 18 24 19 4 2 19 19 4 16 28 6 14 8 24 16 18 8 6 4 8 19 13 16 19 14 24 16 24 16 8 6 25 8 18 25 4 17 25 8 13 12 23 14 19 12 18 12 6 8 10 23 10 23 8 16 10 17 8 25 4 13 6 23 24 25 28 6 25 25 2 13 28 6 17 28 14 16 12 18 4 17 4 24 18 13 19 4 28 12 12 8 28 25 17 8 14 25 17 19 4 16 2 6 19 17 28 24 12 10 23 8 13 13 28 10 12 18 6 25 25 2 24 16 18 25 24 17 23 17 8 6 2 16 13 13 13 17 10 24 23 28 23 4 13 2 23 8 19 14 4 2 17 10 4 10 2 16 2 19 12 8 28 23 17 2 2 2 6 6 25 12 25 2 10 19 
